c FILE /home/rafael/Documents/HappySet/MIHS/inputs/happygen/output/graph_d_regular_k7_p0.4_v50_20241127_082648.txt
c SOURCE This is a d-regular graph formed for the happy graph colouring problem.
c DESCRIPTION It was generated using the problem generator of Rhyd Lewis
c
c GRAPH STATS
c Seed                             = 2001625516
c Number of Nodes                  = 50
c Number of colours k              = 7
c Number of pre-assignments        = 20
c Degree of all vertices           = 6
c Density                          = 0.122449
c 
c The degrees of nodes 1 to 50, respectively, are as follows 
c [6, 6, 6, 6, 6, 6, 6, 6, 6, 6, 6, 6, 6, 6, 6, 6, 6, 6, 6, 6, 6, 6, 6, 6, 6, 6, 
c  6, 6, 6, 6, 6, 6, 6, 6, 6, 6, 6, 6, 6, 6, 6, 6, 6, 6, 6, 6, 6, 6, 6, 6] 
c  
p edge 50 150 7
e 1 8
e 1 14
e 1 27
e 1 32
e 1 37
e 1 50
e 2 16
e 2 20
e 2 22
e 2 23
e 2 33
e 2 38
e 3 16
e 3 21
e 3 23
e 3 30
e 3 41
e 3 50
e 4 7
e 4 18
e 4 22
e 4 30
e 4 34
e 4 44
e 5 9
e 5 16
e 5 19
e 5 24
e 5 33
e 5 49
e 6 10
e 6 24
e 6 29
e 6 38
e 6 45
e 6 46
e 7 17
e 7 24
e 7 26
e 7 36
e 7 37
e 8 12
e 8 13
e 8 41
e 8 47
e 8 49
e 9 10
e 9 28
e 9 43
e 9 44
e 9 45
e 10 15
e 10 31
e 10 41
e 10 50
e 11 21
e 11 25
e 11 35
e 11 37
e 11 44
e 11 49
e 12 34
e 12 36
e 12 44
e 12 46
e 12 49
e 13 14
e 13 16
e 13 21
e 13 24
e 13 42
e 14 26
e 14 36
e 14 38
e 14 50
e 15 17
e 15 20
e 15 23
e 15 29
e 15 48
e 16 36
e 16 46
e 17 26
e 17 31
e 17 34
e 17 35
e 18 26
e 18 28
e 18 42
e 18 43
e 18 47
e 19 21
e 19 28
e 19 32
e 19 39
e 19 48
e 20 23
e 20 42
e 20 45
e 20 46
e 21 29
e 21 30
e 22 26
e 22 35
e 22 42
e 22 47
e 23 34
e 23 43
e 24 29
e 24 32
e 25 33
e 25 34
e 25 40
e 25 43
e 25 50
e 26 40
e 27 34
e 27 35
e 27 39
e 27 43
e 27 49
e 28 33
e 28 37
e 28 46
e 29 40
e 29 48
e 30 40
e 30 44
e 30 47
e 31 33
e 31 36
e 31 39
e 31 41
e 32 36
e 32 40
e 32 48
e 33 40
e 35 39
e 35 48
e 37 44
e 37 50
e 38 45
e 38 46
e 38 49
e 39 42
e 39 47
e 41 45
e 41 48
e 42 43
e 45 47
n 1 5
n 4 1
n 9 5
n 13 2
n 15 1
n 19 2
n 21 2
n 23 1
n 26 7
n 33 3
n 34 1
n 35 7
n 36 4
n 37 5
n 42 2
n 45 5
n 46 7
n 47 5
n 49 6
n 50 5
